Version identifier: 22.1.0.0 | 2022-03-09 | 1a383f8ce
CPXPARAM_Threads                                 1
CPXPARAM_MIP_Strategy_VariableSelect             3
CPXPARAM_TimeLimit                               599.67286342199998
1 of 1 MIP starts provided solutions.
MIP start 'm1' defined initial solution with objective 94.0000.
Tried aggregator 1 time.
MIP Presolve eliminated 21 rows and 0 columns.
MIP Presolve modified 259 coefficients.
Reduced MIP has 901 rows, 2100 columns, and 24656 nonzeros.
Reduced MIP has 2100 binaries, 0 generals, 0 SOSs, and 0 indicators.
Presolve time = 0.04 sec. (53.08 ticks)
Probing time = 0.01 sec. (7.11 ticks)
Tried aggregator 1 time.
Detecting symmetries...
MIP Presolve modified 15 coefficients.
Reduced MIP has 901 rows, 2100 columns, and 25020 nonzeros.
Reduced MIP has 2100 binaries, 0 generals, 0 SOSs, and 0 indicators.
Presolve time = 0.03 sec. (29.48 ticks)
Probing time = 0.01 sec. (7.15 ticks)
Clique table members: 785.
MIP emphasis: balance optimality and feasibility.
MIP search method: dynamic search.
Parallel mode: none, using 1 thread.
Root relaxation solution time = 0.20 sec. (210.65 ticks)

        Nodes                                         Cuts/
   Node  Left     Objective  IInf  Best Integer    Best Bound    ItCnt     Gap

*     0+    0                           94.0000     5050.0000              --- 
      0     0      100.0000   409       94.0000      100.0000     1975    6.38%
      0     0      100.0000   187       94.0000    Cliques: 4     2026    6.38%
      0     0      100.0000   318       94.0000     Cuts: 123     3085    6.38%
      0     0      100.0000   157       94.0000    Cliques: 2     3122    6.38%
      0     0      100.0000   293       94.0000      Cuts: 61     3573    6.38%
Detecting symmetries...
      0     2      100.0000   135       94.0000      100.0000     3573    6.38%
Elapsed time = 5.74 sec. (5475.95 ticks, tree = 0.01 MB, solutions = 1)
      1     3      100.0000   245       94.0000      100.0000     5650    6.38%
      3     5      100.0000   184       94.0000      100.0000     6739    6.38%
      5     7      100.0000   231       94.0000      100.0000     7711    6.38%
      9    11      100.0000   278       94.0000      100.0000    10183    6.38%
     11    13      100.0000   307       94.0000      100.0000    12286    6.38%
     13    15      100.0000   265       94.0000      100.0000    14390    6.38%
     14    16      100.0000   343       94.0000      100.0000    16718    6.38%
     16    18      100.0000   343       94.0000      100.0000    18757    6.38%
     19    21      100.0000   273       94.0000      100.0000    19737    6.38%
     22    24      100.0000   335       94.0000      100.0000    20971    6.38%
Elapsed time = 10.29 sec. (9908.15 ticks, tree = 0.07 MB, solutions = 1)
     30    32      100.0000   238       94.0000      100.0000    23381    6.38%
     40    42      100.0000   202       94.0000      100.0000    25530    6.38%
     50    52      100.0000   199       94.0000      100.0000    27711    6.38%
     60    62      100.0000   206       94.0000      100.0000    31758    6.38%
     72    74      100.0000   180       94.0000      100.0000    34515    6.38%
     84    86      100.0000   173       94.0000      100.0000    37525    6.38%
     97    99      100.0000   272       94.0000      100.0000    40848    6.38%
    109   111      100.0000   275       94.0000      100.0000    44486    6.38%
    120   122      100.0000   167       94.0000      100.0000    46880    6.38%
    133   135      100.0000   294       94.0000      100.0000    50339    6.38%
Elapsed time = 21.24 sec. (20171.62 ticks, tree = 0.97 MB, solutions = 1)
    147   149      100.0000   165       94.0000      100.0000    53080    6.38%
    160   162      100.0000   188       94.0000      100.0000    56388    6.38%
    174   175      100.0000   201       94.0000      100.0000    60371    6.38%
    190   190      100.0000   163       94.0000      100.0000    64856    6.38%
    213   203       99.0000   158       94.0000      100.0000    71234    6.38%
    246   212       96.0000   127       94.0000      100.0000    76490    6.38%
    267   222      100.0000   151       94.0000      100.0000    80439    6.38%
    283   238      100.0000   175       94.0000      100.0000    83890    6.38%
    308   252      100.0000   137       94.0000      100.0000    89750    6.38%
    340   264       95.0000   107       94.0000      100.0000    95140    6.38%
Elapsed time = 32.02 sec. (30031.46 ticks, tree = 2.07 MB, solutions = 1)
    360   281      100.0000   150       94.0000      100.0000    99073    6.38%
    393   289       95.0000    87       94.0000      100.0000   105587    6.38%
    436   297      100.0000   142       94.0000      100.0000   111005    6.38%
    461   310       99.1857   137       94.0000      100.0000   117306    6.38%
    499   323       98.0000   134       94.0000      100.0000   122226    6.38%
    525   334      100.0000   169       94.0000      100.0000   128532    6.38%
    552   347      100.0000   147       94.0000      100.0000   134653    6.38%
    578   357      100.0000   180       94.0000      100.0000   139309    6.38%
    605   369       98.0000   120       94.0000      100.0000   144533    6.38%
    632   379       99.7265   172       94.0000      100.0000   152153    6.38%
Elapsed time = 42.99 sec. (39892.75 ticks, tree = 3.02 MB, solutions = 1)
    669   385       97.0000   104       94.0000      100.0000   158712    6.38%
    706   391      100.0000   147       94.0000      100.0000   163119    6.38%
    729   405       99.4297   146       94.0000      100.0000   169413    6.38%
    760   416       97.8571   121       94.0000      100.0000   176089    6.38%
*   795   398      integral     0       96.0000      100.0000   180808    4.17%
    799   401       99.0000   124       96.0000      100.0000   181179    4.17%
    829   418       99.0000   114       96.0000      100.0000   183687    4.17%
    863   426       98.0000   123       96.0000      100.0000   188906    4.17%
    895   436       99.1474   132       96.0000      100.0000   194370    4.17%
    932   440       99.5780   169       96.0000      100.0000   200538    4.17%
    966   444       98.9242   134       96.0000      100.0000   208250    4.17%
Elapsed time = 53.69 sec. (49574.96 ticks, tree = 3.56 MB, solutions = 2)
    993   452       98.0000   128       96.0000      100.0000   213390    4.17%
   1018   456       98.0000   136       96.0000      100.0000   219743    4.17%
   1046   463      100.0000   173       96.0000      100.0000   225392    4.17%
   1064   470       99.0000   170       96.0000      100.0000   230416    4.17%
   1088   476    infeasible             96.0000      100.0000   237146    4.17%
   1125   489       98.0000    92       96.0000      100.0000   240770    4.17%
   1157   493       97.0000   102       96.0000      100.0000   247350    4.17%
   1181   504      100.0000   144       96.0000      100.0000   252069    4.17%
   1203   515       98.6000   140       96.0000      100.0000   257601    4.17%
   1228   523       99.0000   143       96.0000      100.0000   262990    4.17%
Elapsed time = 64.52 sec. (59281.20 ticks, tree = 4.24 MB, solutions = 2)
   1254   529      100.0000   169       96.0000      100.0000   270119    4.17%
   1280   542       97.0000    90       96.0000      100.0000   275190    4.17%
   1313   546       98.0525   150       96.0000      100.0000   281317    4.17%
   1337   554      100.0000   153       96.0000      100.0000   286201    4.17%
   1357   567      100.0000   151       96.0000      100.0000   291506    4.17%
   1384   572       99.0000   147       96.0000      100.0000   298460    4.17%
   1416   578      100.0000   103       96.0000      100.0000   305000    4.17%
   1443   581       99.0000   126       96.0000      100.0000   310495    4.17%
   1444   582      100.0000   155       96.0000      100.0000   310620    4.17%

Performing restart 1

Repeating presolve.
Tried aggregator 1 time.
MIP Presolve eliminated 0 rows and 96 columns.
MIP Presolve modified 5 coefficients.
Reduced MIP has 901 rows, 2004 columns, and 17735 nonzeros.
Reduced MIP has 2004 binaries, 0 generals, 0 SOSs, and 0 indicators.
Presolve time = 0.01 sec. (11.63 ticks)
Tried aggregator 1 time.
Reduced MIP has 901 rows, 2004 columns, and 17735 nonzeros.
Reduced MIP has 2004 binaries, 0 generals, 0 SOSs, and 0 indicators.
Presolve time = 0.01 sec. (12.37 ticks)
Represolve time = 0.15 sec. (76.34 ticks)
   1445     0      100.0000   183       96.0000    Cliques: 2   312631    4.17%
   1445     0      100.0000   353       96.0000     Cuts: 260   313495    4.17%
   1445     0      100.0000   141       96.0000    Cliques: 3   313642    4.17%
   1445     0      100.0000   190       96.0000     Cuts: 133   314666    4.17%
   1445     0      100.0000   167       96.0000   ZeroHalf: 3   315030    4.17%
   1445     0      100.0000   240       96.0000     Cuts: 100   315597    4.17%
   1445     0      100.0000   198       96.0000    Cliques: 4   315856    4.17%
   1445     0      100.0000   249       96.0000     Cuts: 121   316052    4.17%
   1445     2      100.0000   109       96.0000      100.0000   316052    4.17%
Elapsed time = 85.13 sec. (77641.88 ticks, tree = 0.01 MB, solutions = 2)
   1450     7      100.0000   199       96.0000      100.0000   321971    4.17%
   1458    15      100.0000   170       96.0000      100.0000   324761    4.17%
   1465    22      100.0000   184       96.0000      100.0000   329268    4.17%
   1472    29      100.0000   136       96.0000      100.0000   333292    4.17%
   1483    40      100.0000   130       96.0000      100.0000   336391    4.17%
   1490    47      100.0000   191       96.0000      100.0000   338376    4.17%
   1496    53      100.0000   163       96.0000      100.0000   340746    4.17%
   1505    62      100.0000   122       96.0000      100.0000   342911    4.17%
   1517    74      100.0000   129       96.0000      100.0000   345069    4.17%
   1527    84      100.0000   347       96.0000      100.0000   348218    4.17%
Elapsed time = 95.79 sec. (88004.74 ticks, tree = 0.58 MB, solutions = 2)
   1538    95      100.0000   111       96.0000      100.0000   351607    4.17%
   1554   111      100.0000   149       96.0000      100.0000   353799    4.17%
   1569   126      100.0000   123       96.0000      100.0000   356204    4.17%
   1585   142      100.0000   126       96.0000      100.0000   358370    4.17%
   1602   159      100.0000   118       96.0000      100.0000   361088    4.17%
   1624   178      100.0000   148       96.0000      100.0000   364431    4.17%
   1646   195      100.0000   117       96.0000      100.0000   367961    4.17%
   1675   213      100.0000    66       96.0000      100.0000   372009    4.17%
   1690   216      100.0000   240       96.0000      100.0000   375230    4.17%
   1705   229       99.0000   133       96.0000      100.0000   378844    4.17%
Elapsed time = 106.38 sec. (97858.41 ticks, tree = 1.74 MB, solutions = 2)
   1721   240      100.0000   207       96.0000      100.0000   382252    4.17%
   1734   253      100.0000   141       96.0000      100.0000   384696    4.17%
   1748   267      100.0000   133       96.0000      100.0000   387388    4.17%
   1764   283      100.0000    98       96.0000      100.0000   389895    4.17%
   1782   301      100.0000    99       96.0000      100.0000   393209    4.17%
   1800   319      100.0000   125       96.0000      100.0000   397049    4.17%
   1829   327      100.0000    97       96.0000      100.0000   402053    4.17%
   1862   328    infeasible             96.0000      100.0000   407962    4.17%
   1897   332      100.0000    58       96.0000      100.0000   412632    4.17%
   2052   331      100.0000    96       96.0000      100.0000   435319    4.17%
Elapsed time = 119.90 sec. (110456.51 ticks, tree = 2.58 MB, solutions = 2)
   2163   356      100.0000    92       96.0000      100.0000   453378    4.17%
   2278   366      100.0000   109       96.0000      100.0000   476593    4.17%
   2414   369  -1.00000e+75    56       96.0000      100.0000   498344    4.17%
   2519   380      100.0000   252       96.0000      100.0000   518132    4.17%
   2631   414      100.0000    83       96.0000      100.0000   535921    4.17%
   2756   434      100.0000    59       96.0000      100.0000   556986    4.17%
   2909   421    infeasible             96.0000      100.0000   581954    4.17%
   3061   423    infeasible             96.0000      100.0000   605255    4.17%
   3210   418    infeasible             96.0000      100.0000   629312    4.17%
   3340   444      100.0000    70       96.0000      100.0000   647863    4.17%
Elapsed time = 161.16 sec. (148764.02 ticks, tree = 3.50 MB, solutions = 2)
   3494   446      100.0000    76       96.0000      100.0000   668842    4.17%
   3632   443    infeasible             96.0000      100.0000   694166    4.17%
   3764   457      100.0000    59       96.0000      100.0000   713985    4.17%
   3911   450      100.0000    77       96.0000      100.0000   736096    4.17%
   4055   445      100.0000    61       96.0000      100.0000   757085    4.17%
   4187   459    infeasible             96.0000      100.0000   775982    4.17%
   4330   457      100.0000    62       96.0000      100.0000   796233    4.17%
   4476   453      100.0000   120       96.0000      100.0000   818538    4.17%
   4622   455    infeasible             96.0000      100.0000   839683    4.17%
   4780   462      100.0000    72       96.0000      100.0000   859798    4.17%
Elapsed time = 201.88 sec. (187026.14 ticks, tree = 3.65 MB, solutions = 2)
   4937   460      100.0000   103       96.0000      100.0000   879138    4.17%
   5071   473      100.0000    99       96.0000      100.0000   899856    4.17%
   5208   477      100.0000    88       96.0000      100.0000   920260    4.17%
   5348   478      100.0000    73       96.0000      100.0000   942182    4.17%
   5486   484    infeasible             96.0000      100.0000   962891    4.17%
   5622   473      100.0000    66       96.0000      100.0000   987094    4.17%
   5645   474      100.0000   117       96.0000      100.0000   990671    4.17%
   5796   472      100.0000    84       96.0000      100.0000  1011380    4.17%
   5943   467      100.0000   108       96.0000      100.0000  1032586    4.17%
   6095   464      100.0000    97       96.0000      100.0000  1054193    4.17%
Elapsed time = 242.24 sec. (225656.78 ticks, tree = 3.67 MB, solutions = 2)
   6236   467      100.0000    97       96.0000      100.0000  1075335    4.17%
   6390   464      100.0000    80       96.0000      100.0000  1096376    4.17%
   6530   468      100.0000   131       96.0000      100.0000  1116961    4.17%
   6673   458      100.0000    80       96.0000      100.0000  1141171    4.17%
   6788   481      100.0000   105       96.0000      100.0000  1158995    4.17%
   6889   505      100.0000   116       96.0000      100.0000  1177759    4.17%
   6984   527      100.0000   155       96.0000      100.0000  1199315    4.17%
   7098   532    infeasible             96.0000      100.0000  1223563    4.17%
   7210   542      100.0000   114       96.0000      100.0000  1245386    4.17%
   7309   555      100.0000    96       96.0000      100.0000  1266651    4.17%
Elapsed time = 283.72 sec. (263976.59 ticks, tree = 4.46 MB, solutions = 2)
   7426   558      100.0000   146       96.0000      100.0000  1287624    4.17%
   7517   586      100.0000   117       96.0000      100.0000  1308027    4.17%
   7627   603      100.0000   110       96.0000      100.0000  1326577    4.17%
   7748   597    infeasible             96.0000      100.0000  1349512    4.17%
   7838   627      100.0000   151       96.0000      100.0000  1367563    4.17%
   7940   649      100.0000   145       96.0000      100.0000  1385617    4.17%
   8049   654      100.0000   163       96.0000      100.0000  1406732    4.17%
   8137   676      100.0000    88       96.0000      100.0000  1426814    4.17%
   8253   682      100.0000   109       96.0000      100.0000  1447574    4.17%
   8370   685      100.0000    91       96.0000      100.0000  1466853    4.17%
Elapsed time = 325.26 sec. (302361.98 ticks, tree = 5.56 MB, solutions = 2)
   8483   680    infeasible             96.0000      100.0000  1489099    4.17%
   8597   684      100.0000    99       96.0000      100.0000  1509498    4.17%
   8713   679    infeasible             96.0000      100.0000  1531737    4.17%
   8832   680    infeasible             96.0000      100.0000  1550335    4.17%
   8946   681      100.0000   100       96.0000      100.0000  1571090    4.17%
   9036   694      100.0000   149       96.0000      100.0000  1589857    4.17%
   9095   740      100.0000   177       96.0000      100.0000  1602033    4.17%
   9162   796      100.0000   126       96.0000      100.0000  1614586    4.17%
*  9244   816      integral     0       97.0000      100.0000  1623109    3.09%
   9276   830      100.0000    69       97.0000      100.0000  1628458    3.09%
   9421   850      100.0000    68       97.0000      100.0000  1644115    3.09%
Elapsed time = 366.25 sec. (340799.28 ticks, tree = 6.99 MB, solutions = 3)
   9587   839    infeasible             97.0000      100.0000  1662879    3.09%
   9727   850        cutoff             97.0000      100.0000  1678999    3.09%
   9877   861      100.0000    68       97.0000      100.0000  1697149    3.09%
  10013   886    infeasible             97.0000      100.0000  1713084    3.09%
  10149   907      100.0000    70       97.0000      100.0000  1730440    3.09%
  10295   910    infeasible             97.0000      100.0000  1749307    3.09%
  10443   924        cutoff             97.0000      100.0000  1765802    3.09%
  10594   929       99.0000    70       97.0000      100.0000  1784740    3.09%
  10741   934      100.0000    92       97.0000      100.0000  1803264    3.09%
  10867   953      100.0000    36       97.0000      100.0000  1821897    3.09%
Elapsed time = 406.62 sec. (379038.64 ticks, tree = 7.88 MB, solutions = 3)
  11021   955       99.5000    69       97.0000      100.0000  1840030    3.09%
* 11045+  880                           98.0000      100.0000             2.04%
  11045   882      100.0000    66       98.0000      100.0000  1842976    2.04%
  11046   883      100.0000    77       98.0000      100.0000  1843077    2.04%
  11207   884       99.0000    56       98.0000      100.0000  1861270    2.04%
  11356   901      100.0000    63       98.0000      100.0000  1878508    2.04%
  11501   911      100.0000    75       98.0000      100.0000  1898912    2.04%
  11650   916    infeasible             98.0000      100.0000  1920318    2.04%
  11804   924      100.0000    49       98.0000      100.0000  1940606    2.04%
  11959   920      100.0000    50       98.0000      100.0000  1960950    2.04%
  12109   930      100.0000    63       98.0000      100.0000  1978816    2.04%
Elapsed time = 452.70 sec. (422593.09 ticks, tree = 7.69 MB, solutions = 4)
  12281   930       99.0000    63       98.0000      100.0000  1995802    2.04%
  12443   938      100.0000    79       98.0000      100.0000  2013325    2.04%
  12607   950      100.0000    40       98.0000      100.0000  2028067    2.04%
  12774   954       99.0000    77       98.0000      100.0000  2043364    2.04%
  12929   962       99.0000    93       98.0000      100.0000  2063111    2.04%
  13077   970      100.0000    95       98.0000      100.0000  2084188    2.04%
  13226   969      100.0000    62       98.0000      100.0000  2105834    2.04%
  13371   969       99.0000   121       98.0000      100.0000  2126300    2.04%
  13514   972       99.0000    72       98.0000      100.0000  2144586    2.04%
  13662   972      100.0000    94       98.0000      100.0000  2163605    2.04%
Elapsed time = 491.83 sec. (460902.76 ticks, tree = 8.07 MB, solutions = 4)
  13795   978       99.0000    63       98.0000      100.0000  2180159    2.04%
  13940   984      100.0000    80       98.0000      100.0000  2197271    2.04%
  14060  1002      100.0000   124       98.0000      100.0000  2216171    2.04%
  14169  1018      100.0000    72       98.0000      100.0000  2235364    2.04%
  14312  1034      100.0000    53       98.0000      100.0000  2252585    2.04%
  14459  1036      100.0000    62       98.0000      100.0000  2273841    2.04%
  14545  1040       99.0000    93       98.0000      100.0000  2284707    2.04%
  14678  1044      100.0000    74       98.0000      100.0000  2304892    2.04%
  14817  1047    infeasible             98.0000      100.0000  2326479    2.04%
  14953  1045      100.0000    93       98.0000      100.0000  2350931    2.04%
Elapsed time = 533.44 sec. (500608.08 ticks, tree = 8.74 MB, solutions = 4)
  15086  1072      100.0000    50       98.0000      100.0000  2368189    2.04%
  15217  1087      100.0000    50       98.0000      100.0000  2387057    2.04%
Starting limited solution polishing.
  15352  1099        cutoff             98.0000      100.0000  2404405    2.04%
  15489  1111       99.0000   115       98.0000      100.0000  2422402    2.04%
  15620  1111        cutoff             98.0000      100.0000  2445780    2.04%
  15750  1121       99.0000   105       98.0000      100.0000  2466450    2.04%
  15884  1119    infeasible             98.0000      100.0000  2487610    2.04%
  16021  1129    infeasible             98.0000      100.0000  2506949    2.04%
  16169  1144       99.0000    64       98.0000      100.0000  2523492    2.04%
  16315  1148      100.0000    79       98.0000      100.0000  2540876    2.04%
Elapsed time = 572.75 sec. (538890.78 ticks, tree = 9.63 MB, solutions = 4)
  16451  1152       99.0000    91       98.0000      100.0000  2558406    2.04%
  16565  1166       99.0000    72       98.0000      100.0000  2576881    2.04%
  16698  1164       99.0000    64       98.0000      100.0000  2596883    2.04%
  16745  1161       99.0000   125       98.0000      100.0000  2603119    2.04%
  16866  1168    infeasible             98.0000      100.0000  2621195    2.04%

Clique cuts applied:  39
Cover cuts applied:  32
Mixed integer rounding cuts applied:  23
Zero-half cuts applied:  4

Root node processing (before b&c):
  Real time             =    5.73 sec. (5467.68 ticks)
Sequential b&c:
  Real time             =  593.95 sec. (558990.15 ticks)
                          ------------
Total (root+branch&cut) =  599.67 sec. (564457.83 ticks)
Primal:	98
Dual:	100
Status:	Feasible
Time:	599.62
Sequence:
	9
	8
	7
	1
	3
	11
	12
	10
	3
	12
	5
	14
	6
	12
	11
	10
	3
	19
	5
	8
	6
	16
	2
	11
	17
	8
	19
	9
	14
	15
	7
	3
	1
	11
	17
	19
	4
	0
	19
	4
	11
	0
	2
	13
	16
	2
	11
	16
	12
	0
	4
	11
	19
	4
	0
	19
	16
	8
	19
	5
	3
	13
	15
	18
	9
	1
	14
	17
	15
	14
	6
	16
	7
	2
	16
	0
	11
	16
	12
	18
	9
	1
	8
	7
	1
	9
	18
	15
	13
	3
	19
	10
	17
	2
	10
	9
	12
	4
